NAME: test1644
TYPE: TSP
DIMENSION: 11
EDGE_WEIGHT_TYPE: EUC_2D
NODE_COORD_SECTION
1 27.55823255218981 86.565838151777
2 42.91471901935926 61.9505534776991
3 96.48358105884745 68.93445625144918
4 11.926531640658933 86.14708679487319
5 68.19750030243588 25.863408180671843
6 13.652244146944959 59.79933619600031
7 25.960601693502174 38.17122862876104
8 51.97620595980713 71.63741634048306
9 16.508234327483173 90.39107626618762
10 66.17389403651057 11.272026185110162
11 94.13636370171189 60.832547294053974
EOF
